810637
0,6,209,182,19,116,35,228,132,111,154,71,62,31,117,48,66,38,73,156,82,134,161,206,146,126,162,177,30,198,97,41,159,112,72,208,125,69,85,118,192,194,83,28,94,56,75,10,138,57,58,220,51,212,92,167,44,211,103,202,5,37,223,32,128,152,216,20,3,227,108,89,169,141,170,149,185,87,145,11,186,102,229,171,203,1,81,157,179,120,76,221,40,127,105,140,218,65,189,98,201,104,215,99,52,91,174,53,17,55,23,114,148,142,196,173,163,153,64,199,197,9,200,109,13,164,193,96,119,7,14,136,137,2,184,59,188,15,207,213,45,124,226,18,133,110,47,224,12,219,43,4,155,144,143,25,90,95,165,8,67,100,183,115,160,106,88,195,178,191,36,33,204,74,214,77,27,49,107,34,86,93,150,54,129,80,39,168,26,61,101,21,210,63,29,46,16,175,222,78,166,84,122,24,60,181,79,131,187,180,135,205,217,123,130,172,147,113,50,176,225,68,22,158,121,151,190,42,70,139,0